
Gurobi 8.1.1 (mac64) logging started Sat Oct 26 17:02:53 2019

Academic license - for non-commercial use only
Optimize a model with 616 rows, 400 columns and 2370 nonzeros
Variable types: 0 continuous, 400 integer (400 binary)
Coefficient statistics:
  Matrix range     [5e-01, 1e+00]
  Objective range  [1e+00, 1e+00]
  Bounds range     [1e+00, 1e+00]
  RHS range        [5e-01, 8e+00]
Presolve removed 141 rows and 286 columns
Presolve time: 0.00s

Explored 0 nodes (0 simplex iterations) in 0.00 seconds
Thread count was 1 (of 12 available processors)

Solution count 0

Model is infeasible
Best objective -, best bound -, gap -

Gurobi 8.1.1 (mac64) logging started Sat Oct 26 17:04:58 2019

Academic license - for non-commercial use only
Optimize a model with 212 rows, 200 columns and 790 nonzeros
Variable types: 0 continuous, 200 integer (200 binary)
Coefficient statistics:
  Matrix range     [5e-01, 1e+00]
  Objective range  [1e+00, 1e+00]
  Bounds range     [1e+00, 1e+00]
  RHS range        [5e-01, 8e+00]
Presolve removed 211 rows and 110 columns
Presolve time: 0.00s

Explored 0 nodes (0 simplex iterations) in 0.00 seconds
Thread count was 1 (of 12 available processors)

Solution count 0

Model is infeasible
Best objective -, best bound -, gap -

Gurobi 8.1.1 (mac64) logging started Sat Oct 26 17:05:05 2019

Academic license - for non-commercial use only
Optimize a model with 414 rows, 300 columns and 1580 nonzeros
Variable types: 0 continuous, 300 integer (300 binary)
Coefficient statistics:
  Matrix range     [5e-01, 1e+00]
  Objective range  [1e+00, 1e+00]
  Bounds range     [1e+00, 1e+00]
  RHS range        [5e-01, 8e+00]
Presolve removed 30 rows and 188 columns
Presolve time: 0.00s

Explored 0 nodes (0 simplex iterations) in 0.00 seconds
Thread count was 1 (of 12 available processors)

Solution count 0

Model is infeasible
Best objective -, best bound -, gap -

Gurobi 8.1.1 (mac64) logging started Sat Oct 26 17:05:20 2019

Academic license - for non-commercial use only
Optimize a model with 414 rows, 300 columns and 1580 nonzeros
Variable types: 0 continuous, 300 integer (300 binary)
Coefficient statistics:
  Matrix range     [5e-01, 1e+00]
  Objective range  [1e+00, 1e+00]
  Bounds range     [1e+00, 1e+00]
  RHS range        [5e-01, 8e+00]
Presolve removed 30 rows and 188 columns
Presolve time: 0.00s

Explored 0 nodes (0 simplex iterations) in 0.00 seconds
Thread count was 1 (of 12 available processors)

Solution count 0

Model is infeasible
Best objective -, best bound -, gap -

Gurobi 8.1.1 (mac64) logging started Sat Oct 26 17:05:33 2019

Academic license - for non-commercial use only
Optimize a model with 414 rows, 300 columns and 1580 nonzeros
Variable types: 0 continuous, 300 integer (300 binary)
Coefficient statistics:
  Matrix range     [5e-01, 1e+00]
  Objective range  [1e+00, 1e+00]
  Bounds range     [1e+00, 1e+00]
  RHS range        [5e-01, 8e+00]
Presolve removed 30 rows and 188 columns
Presolve time: 0.00s

Explored 0 nodes (0 simplex iterations) in 0.00 seconds
Thread count was 1 (of 12 available processors)

Solution count 0

Model is infeasible
Best objective -, best bound -, gap -

Gurobi 8.1.1 (mac64) logging started Sat Oct 26 17:06:40 2019

Academic license - for non-commercial use only
Optimize a model with 414 rows, 300 columns and 1580 nonzeros
Variable types: 0 continuous, 300 integer (300 binary)
Coefficient statistics:
  Matrix range     [5e-01, 1e+00]
  Objective range  [1e+00, 1e+00]
  Bounds range     [1e+00, 1e+00]
  RHS range        [5e-01, 8e+00]
Presolve removed 30 rows and 188 columns
Presolve time: 0.00s

Explored 0 nodes (0 simplex iterations) in 0.00 seconds
Thread count was 1 (of 12 available processors)

Solution count 0

Model is infeasible
Best objective -, best bound -, gap -
